; benchmark generated from python API
(set-info :status unknown)
(declare-fun cell_1_1 () Int)
(declare-fun cell_2_1 () Int)
(declare-fun cell_3_1 () Int)
(declare-fun cell_4_1 () Int)
(declare-fun cell_5_1 () Int)
(declare-fun cell_6_1 () Int)
(declare-fun cell_7_1 () Int)
(declare-fun cell_8_1 () Int)
(declare-fun cell_9_1 () Int)
(declare-fun cell_1_2 () Int)
(declare-fun cell_2_2 () Int)
(declare-fun cell_3_2 () Int)
(declare-fun cell_4_2 () Int)
(declare-fun cell_5_2 () Int)
(declare-fun cell_6_2 () Int)
(declare-fun cell_7_2 () Int)
(declare-fun cell_8_2 () Int)
(declare-fun cell_9_2 () Int)
(declare-fun cell_1_3 () Int)
(declare-fun cell_2_3 () Int)
(declare-fun cell_3_3 () Int)
(declare-fun cell_4_3 () Int)
(declare-fun cell_5_3 () Int)
(declare-fun cell_6_3 () Int)
(declare-fun cell_7_3 () Int)
(declare-fun cell_8_3 () Int)
(declare-fun cell_9_3 () Int)
(declare-fun cell_1_4 () Int)
(declare-fun cell_2_4 () Int)
(declare-fun cell_3_4 () Int)
(declare-fun cell_4_4 () Int)
(declare-fun cell_5_4 () Int)
(declare-fun cell_6_4 () Int)
(declare-fun cell_7_4 () Int)
(declare-fun cell_8_4 () Int)
(declare-fun cell_9_4 () Int)
(declare-fun cell_1_5 () Int)
(declare-fun cell_2_5 () Int)
(declare-fun cell_3_5 () Int)
(declare-fun cell_4_5 () Int)
(declare-fun cell_5_5 () Int)
(declare-fun cell_6_5 () Int)
(declare-fun cell_7_5 () Int)
(declare-fun cell_8_5 () Int)
(declare-fun cell_9_5 () Int)
(declare-fun cell_1_6 () Int)
(declare-fun cell_2_6 () Int)
(declare-fun cell_3_6 () Int)
(declare-fun cell_4_6 () Int)
(declare-fun cell_5_6 () Int)
(declare-fun cell_6_6 () Int)
(declare-fun cell_7_6 () Int)
(declare-fun cell_8_6 () Int)
(declare-fun cell_9_6 () Int)
(declare-fun cell_1_7 () Int)
(declare-fun cell_2_7 () Int)
(declare-fun cell_3_7 () Int)
(declare-fun cell_4_7 () Int)
(declare-fun cell_5_7 () Int)
(declare-fun cell_6_7 () Int)
(declare-fun cell_7_7 () Int)
(declare-fun cell_8_7 () Int)
(declare-fun cell_9_7 () Int)
(declare-fun cell_1_8 () Int)
(declare-fun cell_2_8 () Int)
(declare-fun cell_3_8 () Int)
(declare-fun cell_4_8 () Int)
(declare-fun cell_5_8 () Int)
(declare-fun cell_6_8 () Int)
(declare-fun cell_7_8 () Int)
(declare-fun cell_8_8 () Int)
(declare-fun cell_9_8 () Int)
(declare-fun cell_1_9 () Int)
(declare-fun cell_2_9 () Int)
(declare-fun cell_3_9 () Int)
(declare-fun cell_4_9 () Int)
(declare-fun cell_5_9 () Int)
(declare-fun cell_6_9 () Int)
(declare-fun cell_7_9 () Int)
(declare-fun cell_8_9 () Int)
(declare-fun cell_9_9 () Int)
(assert
 (let (($x4666 (= cell_1_1 9)))
 (let (($x8034 (= cell_1_1 8)))
 (let (($x9125 (= cell_1_1 7)))
 (let (($x5528 (= cell_1_1 6)))
 (let (($x2919 (= cell_1_1 5)))
 (let (($x7013 (= cell_1_1 4)))
 (let (($x5472 (= cell_1_1 3)))
 (let (($x5278 (= cell_1_1 2)))
 (let (($x5722 (= cell_1_1 1)))
 (or $x5722 $x5278 $x5472 $x7013 $x2919 $x5528 $x9125 $x8034 $x4666)))))))))))
(assert
 (let (($x4003 (= cell_2_1 9)))
 (let (($x9223 (= cell_2_1 8)))
 (let (($x848 (= cell_2_1 7)))
 (let (($x6601 (= cell_2_1 6)))
 (let (($x170 (= cell_2_1 5)))
 (let (($x7144 (= cell_2_1 4)))
 (let (($x8290 (= cell_2_1 3)))
 (let (($x5138 (= cell_2_1 2)))
 (let (($x5355 (= cell_2_1 1)))
 (or $x5355 $x5138 $x8290 $x7144 $x170 $x6601 $x848 $x9223 $x4003)))))))))))
(assert
 (let (($x1303 (= cell_3_1 9)))
 (let (($x6068 (= cell_3_1 8)))
 (let (($x10032 (= cell_3_1 7)))
 (let (($x4285 (= cell_3_1 6)))
 (let (($x3784 (= cell_3_1 5)))
 (let (($x8883 (= cell_3_1 4)))
 (let (($x6091 (= cell_3_1 3)))
 (let (($x8601 (= cell_3_1 2)))
 (let (($x7845 (= cell_3_1 1)))
 (or $x7845 $x8601 $x6091 $x8883 $x3784 $x4285 $x10032 $x6068 $x1303)))))))))))
(assert
 (let (($x8421 (= cell_4_1 9)))
 (let (($x4248 (= cell_4_1 8)))
 (let (($x1435 (= cell_4_1 7)))
 (let (($x7690 (= cell_4_1 6)))
 (let (($x1826 (= cell_4_1 5)))
 (let (($x4924 (= cell_4_1 4)))
 (let (($x1724 (= cell_4_1 3)))
 (let (($x7040 (= cell_4_1 2)))
 (let (($x5080 (= cell_4_1 1)))
 (or $x5080 $x7040 $x1724 $x4924 $x1826 $x7690 $x1435 $x4248 $x8421)))))))))))
(assert
 (let (($x9684 (= cell_5_1 9)))
 (let (($x3439 (= cell_5_1 8)))
 (let (($x1451 (= cell_5_1 7)))
 (let (($x4236 (= cell_5_1 6)))
 (let (($x8645 (= cell_5_1 5)))
 (let (($x6333 (= cell_5_1 4)))
 (let (($x1488 (= cell_5_1 3)))
 (let (($x8376 (= cell_5_1 2)))
 (let (($x5548 (= cell_5_1 1)))
 (or $x5548 $x8376 $x1488 $x6333 $x8645 $x4236 $x1451 $x3439 $x9684)))))))))))
(assert
 (let (($x9118 (= cell_6_1 9)))
 (let (($x10086 (= cell_6_1 8)))
 (let (($x2016 (= cell_6_1 7)))
 (let (($x2550 (= cell_6_1 6)))
 (let (($x2150 (= cell_6_1 5)))
 (let (($x4400 (= cell_6_1 4)))
 (let (($x4826 (= cell_6_1 3)))
 (let (($x4389 (= cell_6_1 2)))
 (let (($x2015 (= cell_6_1 1)))
 (or $x2015 $x4389 $x4826 $x4400 $x2150 $x2550 $x2016 $x10086 $x9118)))))))))))
(assert
 (let (($x1654 (= cell_7_1 9)))
 (let (($x887 (= cell_7_1 8)))
 (let (($x10194 (= cell_7_1 7)))
 (let (($x5570 (= cell_7_1 6)))
 (let (($x2099 (= cell_7_1 5)))
 (let (($x2668 (= cell_7_1 4)))
 (let (($x6053 (= cell_7_1 3)))
 (let (($x4381 (= cell_7_1 2)))
 (let (($x3538 (= cell_7_1 1)))
 (or $x3538 $x4381 $x6053 $x2668 $x2099 $x5570 $x10194 $x887 $x1654)))))))))))
(assert
 (let (($x5818 (= cell_8_1 9)))
 (let (($x7370 (= cell_8_1 8)))
 (let (($x3235 (= cell_8_1 7)))
 (let (($x1584 (= cell_8_1 6)))
 (let (($x1466 (= cell_8_1 5)))
 (let (($x7232 (= cell_8_1 4)))
 (let (($x5429 (= cell_8_1 3)))
 (let (($x8484 (= cell_8_1 2)))
 (let (($x9784 (= cell_8_1 1)))
 (or $x9784 $x8484 $x5429 $x7232 $x1466 $x1584 $x3235 $x7370 $x5818)))))))))))
(assert
 (let (($x6891 (= cell_9_1 9)))
 (let (($x2948 (= cell_9_1 8)))
 (let (($x3423 (= cell_9_1 7)))
 (let (($x6735 (= cell_9_1 6)))
 (let (($x9063 (= cell_9_1 5)))
 (let (($x9907 (= cell_9_1 4)))
 (let (($x5306 (= cell_9_1 3)))
 (let (($x1483 (= cell_9_1 2)))
 (let (($x6715 (= cell_9_1 1)))
 (or $x6715 $x1483 $x5306 $x9907 $x9063 $x6735 $x3423 $x2948 $x6891)))))))))))
(assert
 (let (($x6059 (= cell_1_2 9)))
 (let (($x4592 (= cell_1_2 8)))
 (let (($x7786 (= cell_1_2 7)))
 (let (($x7255 (= cell_1_2 6)))
 (let (($x6217 (= cell_1_2 5)))
 (let (($x7312 (= cell_1_2 4)))
 (let (($x2600 (= cell_1_2 3)))
 (let (($x5927 (= cell_1_2 2)))
 (let (($x9249 (= cell_1_2 1)))
 (or $x9249 $x5927 $x2600 $x7312 $x6217 $x7255 $x7786 $x4592 $x6059)))))))))))
(assert
 (let (($x9114 (= cell_2_2 9)))
 (let (($x4684 (= cell_2_2 8)))
 (let (($x9675 (= cell_2_2 7)))
 (let (($x10140 (= cell_2_2 6)))
 (let (($x1812 (= cell_2_2 5)))
 (let (($x2838 (= cell_2_2 4)))
 (let (($x9141 (= cell_2_2 3)))
 (let (($x1900 (= cell_2_2 2)))
 (let (($x4547 (= cell_2_2 1)))
 (or $x4547 $x1900 $x9141 $x2838 $x1812 $x10140 $x9675 $x4684 $x9114)))))))))))
(assert
 (let (($x9723 (= cell_3_2 9)))
 (let (($x5492 (= cell_3_2 8)))
 (let (($x7626 (= cell_3_2 7)))
 (let (($x6756 (= cell_3_2 6)))
 (let (($x3633 (= cell_3_2 5)))
 (let (($x4025 (= cell_3_2 4)))
 (let (($x7567 (= cell_3_2 3)))
 (let (($x1017 (= cell_3_2 2)))
 (let (($x5692 (= cell_3_2 1)))
 (or $x5692 $x1017 $x7567 $x4025 $x3633 $x6756 $x7626 $x5492 $x9723)))))))))))
(assert
 (let (($x3009 (= cell_4_2 9)))
 (let (($x5120 (= cell_4_2 8)))
 (let (($x5164 (= cell_4_2 7)))
 (let (($x5279 (= cell_4_2 6)))
 (let (($x9960 (= cell_4_2 5)))
 (let (($x4534 (= cell_4_2 4)))
 (let (($x10037 (= cell_4_2 3)))
 (let (($x3208 (= cell_4_2 2)))
 (let (($x2984 (= cell_4_2 1)))
 (or $x2984 $x3208 $x10037 $x4534 $x9960 $x5279 $x5164 $x5120 $x3009)))))))))))
(assert
 (let (($x8898 (= cell_5_2 9)))
 (let (($x2812 (= cell_5_2 8)))
 (let (($x5283 (= cell_5_2 7)))
 (let (($x6253 (= cell_5_2 6)))
 (let (($x9678 (= cell_5_2 5)))
 (let (($x3073 (= cell_5_2 4)))
 (let (($x2978 (= cell_5_2 3)))
 (let (($x7516 (= cell_5_2 2)))
 (let (($x5476 (= cell_5_2 1)))
 (or $x5476 $x7516 $x2978 $x3073 $x9678 $x6253 $x5283 $x2812 $x8898)))))))))))
(assert
 (let (($x2553 (= cell_6_2 9)))
 (let (($x8295 (= cell_6_2 8)))
 (let (($x7636 (= cell_6_2 7)))
 (let (($x4203 (= cell_6_2 6)))
 (let (($x7844 (= cell_6_2 5)))
 (let (($x8068 (= cell_6_2 4)))
 (let (($x5996 (= cell_6_2 3)))
 (let (($x4629 (= cell_6_2 2)))
 (let (($x371 (= cell_6_2 1)))
 (or $x371 $x4629 $x5996 $x8068 $x7844 $x4203 $x7636 $x8295 $x2553)))))))))))
(assert
 (let (($x7838 (= cell_7_2 9)))
 (let (($x3788 (= cell_7_2 8)))
 (let (($x7851 (= cell_7_2 7)))
 (let (($x1136 (= cell_7_2 6)))
 (let (($x2445 (= cell_7_2 5)))
 (let (($x3418 (= cell_7_2 4)))
 (let (($x1392 (= cell_7_2 3)))
 (let (($x7484 (= cell_7_2 2)))
 (let (($x8558 (= cell_7_2 1)))
 (or $x8558 $x7484 $x1392 $x3418 $x2445 $x1136 $x7851 $x3788 $x7838)))))))))))
(assert
 (let (($x2774 (= cell_8_2 9)))
 (let (($x8852 (= cell_8_2 8)))
 (let (($x4388 (= cell_8_2 7)))
 (let (($x4474 (= cell_8_2 6)))
 (let (($x7608 (= cell_8_2 5)))
 (let (($x2624 (= cell_8_2 4)))
 (let (($x3794 (= cell_8_2 3)))
 (let (($x6466 (= cell_8_2 2)))
 (let (($x2356 (= cell_8_2 1)))
 (or $x2356 $x6466 $x3794 $x2624 $x7608 $x4474 $x4388 $x8852 $x2774)))))))))))
(assert
 (let (($x292 (= cell_9_2 9)))
 (let (($x5230 (= cell_9_2 8)))
 (let (($x7011 (= cell_9_2 7)))
 (let (($x6897 (= cell_9_2 6)))
 (let (($x1930 (= cell_9_2 5)))
 (let (($x5350 (= cell_9_2 4)))
 (let (($x9004 (= cell_9_2 3)))
 (let (($x2482 (= cell_9_2 2)))
 (let (($x10232 (= cell_9_2 1)))
 (or $x10232 $x2482 $x9004 $x5350 $x1930 $x6897 $x7011 $x5230 $x292)))))))))))
(assert
 (let (($x8142 (= cell_1_3 9)))
 (let (($x9475 (= cell_1_3 8)))
 (let (($x2950 (= cell_1_3 7)))
 (let (($x6166 (= cell_1_3 6)))
 (let (($x7797 (= cell_1_3 5)))
 (let (($x9115 (= cell_1_3 4)))
 (let (($x253 (= cell_1_3 3)))
 (let (($x5471 (= cell_1_3 2)))
 (let (($x4562 (= cell_1_3 1)))
 (or $x4562 $x5471 $x253 $x9115 $x7797 $x6166 $x2950 $x9475 $x8142)))))))))))
(assert
 (let (($x6921 (= cell_2_3 9)))
 (let (($x7411 (= cell_2_3 8)))
 (let (($x951 (= cell_2_3 7)))
 (let (($x9544 (= cell_2_3 6)))
 (let (($x1632 (= cell_2_3 5)))
 (let (($x7951 (= cell_2_3 4)))
 (let (($x5796 (= cell_2_3 3)))
 (let (($x9315 (= cell_2_3 2)))
 (let (($x7778 (= cell_2_3 1)))
 (or $x7778 $x9315 $x5796 $x7951 $x1632 $x9544 $x951 $x7411 $x6921)))))))))))
(assert
 (let (($x5739 (= cell_3_3 9)))
 (let (($x3985 (= cell_3_3 8)))
 (let (($x1879 (= cell_3_3 7)))
 (let (($x3757 (= cell_3_3 6)))
 (let (($x5095 (= cell_3_3 5)))
 (let (($x5190 (= cell_3_3 4)))
 (let (($x1250 (= cell_3_3 3)))
 (let (($x3833 (= cell_3_3 2)))
 (let (($x397 (= cell_3_3 1)))
 (or $x397 $x3833 $x1250 $x5190 $x5095 $x3757 $x1879 $x3985 $x5739)))))))))))
(assert
 (let (($x6470 (= cell_4_3 9)))
 (let (($x4432 (= cell_4_3 8)))
 (let (($x10056 (= cell_4_3 7)))
 (let (($x9151 (= cell_4_3 6)))
 (let (($x946 (= cell_4_3 5)))
 (let (($x2166 (= cell_4_3 4)))
 (let (($x956 (= cell_4_3 3)))
 (let (($x9411 (= cell_4_3 2)))
 (let (($x2168 (= cell_4_3 1)))
 (or $x2168 $x9411 $x956 $x2166 $x946 $x9151 $x10056 $x4432 $x6470)))))))))))
(assert
 (let (($x7915 (= cell_5_3 9)))
 (let (($x8588 (= cell_5_3 8)))
 (let (($x4180 (= cell_5_3 7)))
 (let (($x8732 (= cell_5_3 6)))
 (let (($x6670 (= cell_5_3 5)))
 (let (($x8616 (= cell_5_3 4)))
 (let (($x1677 (= cell_5_3 3)))
 (let (($x1681 (= cell_5_3 2)))
 (let (($x5849 (= cell_5_3 1)))
 (or $x5849 $x1681 $x1677 $x8616 $x6670 $x8732 $x4180 $x8588 $x7915)))))))))))
(assert
 (let (($x4387 (= cell_6_3 9)))
 (let (($x709 (= cell_6_3 8)))
 (let (($x4194 (= cell_6_3 7)))
 (let (($x901 (= cell_6_3 6)))
 (let (($x1892 (= cell_6_3 5)))
 (let (($x9838 (= cell_6_3 4)))
 (let (($x1799 (= cell_6_3 3)))
 (let (($x3881 (= cell_6_3 2)))
 (let (($x375 (= cell_6_3 1)))
 (or $x375 $x3881 $x1799 $x9838 $x1892 $x901 $x4194 $x709 $x4387)))))))))))
(assert
 (let (($x2777 (= cell_7_3 9)))
 (let (($x5976 (= cell_7_3 8)))
 (let (($x2274 (= cell_7_3 7)))
 (let (($x1577 (= cell_7_3 6)))
 (let (($x8360 (= cell_7_3 5)))
 (let (($x9172 (= cell_7_3 4)))
 (let (($x6630 (= cell_7_3 3)))
 (let (($x42 (= cell_7_3 2)))
 (let (($x4960 (= cell_7_3 1)))
 (or $x4960 $x42 $x6630 $x9172 $x8360 $x1577 $x2274 $x5976 $x2777)))))))))))
(assert
 (let (($x7165 (= cell_8_3 9)))
 (let (($x657 (= cell_8_3 8)))
 (let (($x7300 (= cell_8_3 7)))
 (let (($x8676 (= cell_8_3 6)))
 (let (($x3802 (= cell_8_3 5)))
 (let (($x7047 (= cell_8_3 4)))
 (let (($x8167 (= cell_8_3 3)))
 (let (($x6436 (= cell_8_3 2)))
 (let (($x33 (= cell_8_3 1)))
 (or $x33 $x6436 $x8167 $x7047 $x3802 $x8676 $x7300 $x657 $x7165)))))))))))
(assert
 (let (($x9086 (= cell_9_3 9)))
 (let (($x8621 (= cell_9_3 8)))
 (let (($x4671 (= cell_9_3 7)))
 (let (($x2741 (= cell_9_3 6)))
 (let (($x322 (= cell_9_3 5)))
 (let (($x7237 (= cell_9_3 4)))
 (let (($x3286 (= cell_9_3 3)))
 (let (($x4293 (= cell_9_3 2)))
 (let (($x5672 (= cell_9_3 1)))
 (or $x5672 $x4293 $x3286 $x7237 $x322 $x2741 $x4671 $x8621 $x9086)))))))))))
(assert
 (let (($x3887 (= cell_1_4 9)))
 (let (($x4548 (= cell_1_4 8)))
 (let (($x3615 (= cell_1_4 7)))
 (let (($x1274 (= cell_1_4 6)))
 (let (($x613 (= cell_1_4 5)))
 (let (($x6965 (= cell_1_4 4)))
 (let (($x9019 (= cell_1_4 3)))
 (let (($x1421 (= cell_1_4 2)))
 (let (($x5987 (= cell_1_4 1)))
 (or $x5987 $x1421 $x9019 $x6965 $x613 $x1274 $x3615 $x4548 $x3887)))))))))))
(assert
 (let (($x3268 (= cell_2_4 9)))
 (let (($x7532 (= cell_2_4 8)))
 (let (($x1926 (= cell_2_4 7)))
 (let (($x4185 (= cell_2_4 6)))
 (let (($x5103 (= cell_2_4 5)))
 (let (($x3426 (= cell_2_4 4)))
 (let (($x5313 (= cell_2_4 3)))
 (let (($x708 (= cell_2_4 2)))
 (let (($x6632 (= cell_2_4 1)))
 (or $x6632 $x708 $x5313 $x3426 $x5103 $x4185 $x1926 $x7532 $x3268)))))))))))
(assert
 (let (($x3503 (= cell_3_4 9)))
 (let (($x7687 (= cell_3_4 8)))
 (let (($x2402 (= cell_3_4 7)))
 (let (($x3269 (= cell_3_4 6)))
 (let (($x1863 (= cell_3_4 5)))
 (let (($x3450 (= cell_3_4 4)))
 (let (($x942 (= cell_3_4 3)))
 (let (($x6337 (= cell_3_4 2)))
 (let (($x9058 (= cell_3_4 1)))
 (or $x9058 $x6337 $x942 $x3450 $x1863 $x3269 $x2402 $x7687 $x3503)))))))))))
(assert
 (let (($x7650 (= cell_4_4 9)))
 (let (($x4723 (= cell_4_4 8)))
 (let (($x6142 (= cell_4_4 7)))
 (let (($x67 (= cell_4_4 6)))
 (let (($x526 (= cell_4_4 5)))
 (let (($x6037 (= cell_4_4 4)))
 (let (($x989 (= cell_4_4 3)))
 (let (($x3780 (= cell_4_4 2)))
 (let (($x9402 (= cell_4_4 1)))
 (or $x9402 $x3780 $x989 $x6037 $x526 $x67 $x6142 $x4723 $x7650)))))))))))
(assert
 (let (($x6129 (= cell_5_4 9)))
 (let (($x2872 (= cell_5_4 8)))
 (let (($x5607 (= cell_5_4 7)))
 (let (($x5814 (= cell_5_4 6)))
 (let (($x1273 (= cell_5_4 5)))
 (let (($x5953 (= cell_5_4 4)))
 (let (($x5636 (= cell_5_4 3)))
 (let (($x5554 (= cell_5_4 2)))
 (let (($x5653 (= cell_5_4 1)))
 (or $x5653 $x5554 $x5636 $x5953 $x1273 $x5814 $x5607 $x2872 $x6129)))))))))))
(assert
 (let (($x1086 (= cell_6_4 9)))
 (let (($x2299 (= cell_6_4 8)))
 (let (($x6084 (= cell_6_4 7)))
 (let (($x7413 (= cell_6_4 6)))
 (let (($x202 (= cell_6_4 5)))
 (let (($x9190 (= cell_6_4 4)))
 (let (($x1064 (= cell_6_4 3)))
 (let (($x8298 (= cell_6_4 2)))
 (let (($x9012 (= cell_6_4 1)))
 (or $x9012 $x8298 $x1064 $x9190 $x202 $x7413 $x6084 $x2299 $x1086)))))))))))
(assert
 (let (($x7993 (= cell_7_4 9)))
 (let (($x2111 (= cell_7_4 8)))
 (let (($x2369 (= cell_7_4 7)))
 (let (($x3496 (= cell_7_4 6)))
 (let (($x3957 (= cell_7_4 5)))
 (let (($x8614 (= cell_7_4 4)))
 (let (($x3219 (= cell_7_4 3)))
 (let (($x4980 (= cell_7_4 2)))
 (let (($x86 (= cell_7_4 1)))
 (or $x86 $x4980 $x3219 $x8614 $x3957 $x3496 $x2369 $x2111 $x7993)))))))))))
(assert
 (let (($x3414 (= cell_8_4 9)))
 (let (($x3003 (= cell_8_4 8)))
 (let (($x9862 (= cell_8_4 7)))
 (let (($x936 (= cell_8_4 6)))
 (let (($x3014 (= cell_8_4 5)))
 (let (($x3687 (= cell_8_4 4)))
 (let (($x4993 (= cell_8_4 3)))
 (let (($x8145 (= cell_8_4 2)))
 (let (($x3404 (= cell_8_4 1)))
 (or $x3404 $x8145 $x4993 $x3687 $x3014 $x936 $x9862 $x3003 $x3414)))))))))))
(assert
 (let (($x4319 (= cell_9_4 9)))
 (let (($x6652 (= cell_9_4 8)))
 (let (($x7523 (= cell_9_4 7)))
 (let (($x9626 (= cell_9_4 6)))
 (let (($x3346 (= cell_9_4 5)))
 (let (($x7252 (= cell_9_4 4)))
 (let (($x7610 (= cell_9_4 3)))
 (let (($x6789 (= cell_9_4 2)))
 (let (($x10054 (= cell_9_4 1)))
 (or $x10054 $x6789 $x7610 $x7252 $x3346 $x9626 $x7523 $x6652 $x4319)))))))))))
(assert
 (let (($x2418 (= cell_1_5 9)))
 (let (($x3297 (= cell_1_5 8)))
 (let (($x7666 (= cell_1_5 7)))
 (let (($x3324 (= cell_1_5 6)))
 (let (($x2520 (= cell_1_5 5)))
 (let (($x7917 (= cell_1_5 4)))
 (let (($x2987 (= cell_1_5 3)))
 (let (($x1834 (= cell_1_5 2)))
 (let (($x2326 (= cell_1_5 1)))
 (or $x2326 $x1834 $x2987 $x7917 $x2520 $x3324 $x7666 $x3297 $x2418)))))))))))
(assert
 (let (($x8759 (= cell_2_5 9)))
 (let (($x9307 (= cell_2_5 8)))
 (let (($x9415 (= cell_2_5 7)))
 (let (($x9294 (= cell_2_5 6)))
 (let (($x6986 (= cell_2_5 5)))
 (let (($x4690 (= cell_2_5 4)))
 (let (($x2694 (= cell_2_5 3)))
 (let (($x3653 (= cell_2_5 2)))
 (let (($x2638 (= cell_2_5 1)))
 (or $x2638 $x3653 $x2694 $x4690 $x6986 $x9294 $x9415 $x9307 $x8759)))))))))))
(assert
 (let (($x4741 (= cell_3_5 9)))
 (let (($x1497 (= cell_3_5 8)))
 (let (($x5687 (= cell_3_5 7)))
 (let (($x6499 (= cell_3_5 6)))
 (let (($x2149 (= cell_3_5 5)))
 (let (($x1701 (= cell_3_5 4)))
 (let (($x8824 (= cell_3_5 3)))
 (let (($x3713 (= cell_3_5 2)))
 (let (($x10065 (= cell_3_5 1)))
 (or $x10065 $x3713 $x8824 $x1701 $x2149 $x6499 $x5687 $x1497 $x4741)))))))))))
(assert
 (let (($x1941 (= cell_4_5 9)))
 (let (($x8216 (= cell_4_5 8)))
 (let (($x4222 (= cell_4_5 7)))
 (let (($x5664 (= cell_4_5 6)))
 (let (($x2740 (= cell_4_5 5)))
 (let (($x4466 (= cell_4_5 4)))
 (let (($x5152 (= cell_4_5 3)))
 (let (($x875 (= cell_4_5 2)))
 (let (($x2510 (= cell_4_5 1)))
 (or $x2510 $x875 $x5152 $x4466 $x2740 $x5664 $x4222 $x8216 $x1941)))))))))))
(assert
 (let (($x2110 (= cell_5_5 9)))
 (let (($x60 (= cell_5_5 8)))
 (let (($x9252 (= cell_5_5 7)))
 (let (($x5521 (= cell_5_5 6)))
 (let (($x8120 (= cell_5_5 5)))
 (let (($x6409 (= cell_5_5 4)))
 (let (($x3674 (= cell_5_5 3)))
 (let (($x962 (= cell_5_5 2)))
 (let (($x3126 (= cell_5_5 1)))
 (or $x3126 $x962 $x3674 $x6409 $x8120 $x5521 $x9252 $x60 $x2110)))))))))))
(assert
 (let (($x7573 (= cell_6_5 9)))
 (let (($x10151 (= cell_6_5 8)))
 (let (($x3632 (= cell_6_5 7)))
 (let (($x1960 (= cell_6_5 6)))
 (let (($x6883 (= cell_6_5 5)))
 (let (($x2485 (= cell_6_5 4)))
 (let (($x5140 (= cell_6_5 3)))
 (let (($x6524 (= cell_6_5 2)))
 (let (($x7228 (= cell_6_5 1)))
 (or $x7228 $x6524 $x5140 $x2485 $x6883 $x1960 $x3632 $x10151 $x7573)))))))))))
(assert
 (let (($x952 (= cell_7_5 9)))
 (let (($x2666 (= cell_7_5 8)))
 (let (($x1666 (= cell_7_5 7)))
 (let (($x7728 (= cell_7_5 6)))
 (let (($x10125 (= cell_7_5 5)))
 (let (($x8143 (= cell_7_5 4)))
 (let (($x8359 (= cell_7_5 3)))
 (let (($x1168 (= cell_7_5 2)))
 (let (($x5983 (= cell_7_5 1)))
 (or $x5983 $x1168 $x8359 $x8143 $x10125 $x7728 $x1666 $x2666 $x952)))))))))))
(assert
 (let (($x1384 (= cell_8_5 9)))
 (let (($x267 (= cell_8_5 8)))
 (let (($x1011 (= cell_8_5 7)))
 (let (($x7996 (= cell_8_5 6)))
 (let (($x7930 (= cell_8_5 5)))
 (let (($x4872 (= cell_8_5 4)))
 (let (($x3467 (= cell_8_5 3)))
 (let (($x9785 (= cell_8_5 2)))
 (let (($x8416 (= cell_8_5 1)))
 (or $x8416 $x9785 $x3467 $x4872 $x7930 $x7996 $x1011 $x267 $x1384)))))))))))
(assert
 (let (($x8225 (= cell_9_5 9)))
 (let (($x3116 (= cell_9_5 8)))
 (let (($x3016 (= cell_9_5 7)))
 (let (($x7620 (= cell_9_5 6)))
 (let (($x9772 (= cell_9_5 5)))
 (let (($x10133 (= cell_9_5 4)))
 (let (($x1759 (= cell_9_5 3)))
 (let (($x5701 (= cell_9_5 2)))
 (let (($x1170 (= cell_9_5 1)))
 (or $x1170 $x5701 $x1759 $x10133 $x9772 $x7620 $x3016 $x3116 $x8225)))))))))))
(assert
 (let (($x1945 (= cell_1_6 9)))
 (let (($x7089 (= cell_1_6 8)))
 (let (($x9628 (= cell_1_6 7)))
 (let (($x5829 (= cell_1_6 6)))
 (let (($x5025 (= cell_1_6 5)))
 (let (($x6911 (= cell_1_6 4)))
 (let (($x9429 (= cell_1_6 3)))
 (let (($x6962 (= cell_1_6 2)))
 (let (($x5988 (= cell_1_6 1)))
 (or $x5988 $x6962 $x9429 $x6911 $x5025 $x5829 $x9628 $x7089 $x1945)))))))))))
(assert
 (let (($x768 (= cell_2_6 9)))
 (let (($x8969 (= cell_2_6 8)))
 (let (($x895 (= cell_2_6 7)))
 (let (($x5333 (= cell_2_6 6)))
 (let (($x2975 (= cell_2_6 5)))
 (let (($x5330 (= cell_2_6 4)))
 (let (($x9227 (= cell_2_6 3)))
 (let (($x2557 (= cell_2_6 2)))
 (let (($x1820 (= cell_2_6 1)))
 (or $x1820 $x2557 $x9227 $x5330 $x2975 $x5333 $x895 $x8969 $x768)))))))))))
(assert
 (let (($x8071 (= cell_3_6 9)))
 (let (($x9527 (= cell_3_6 8)))
 (let (($x5334 (= cell_3_6 7)))
 (let (($x9023 (= cell_3_6 6)))
 (let (($x3118 (= cell_3_6 5)))
 (let (($x6866 (= cell_3_6 4)))
 (let (($x4808 (= cell_3_6 3)))
 (let (($x4700 (= cell_3_6 2)))
 (let (($x4039 (= cell_3_6 1)))
 (or $x4039 $x4700 $x4808 $x6866 $x3118 $x9023 $x5334 $x9527 $x8071)))))))))))
(assert
 (let (($x1363 (= cell_4_6 9)))
 (let (($x6454 (= cell_4_6 8)))
 (let (($x4892 (= cell_4_6 7)))
 (let (($x9298 (= cell_4_6 6)))
 (let (($x413 (= cell_4_6 5)))
 (let (($x1270 (= cell_4_6 4)))
 (let (($x6515 (= cell_4_6 3)))
 (let (($x2432 (= cell_4_6 2)))
 (let (($x9424 (= cell_4_6 1)))
 (or $x9424 $x2432 $x6515 $x1270 $x413 $x9298 $x4892 $x6454 $x1363)))))))))))
(assert
 (let (($x1046 (= cell_5_6 9)))
 (let (($x1476 (= cell_5_6 8)))
 (let (($x10196 (= cell_5_6 7)))
 (let (($x706 (= cell_5_6 6)))
 (let (($x4444 (= cell_5_6 5)))
 (let (($x5968 (= cell_5_6 4)))
 (let (($x5850 (= cell_5_6 3)))
 (let (($x9334 (= cell_5_6 2)))
 (let (($x2538 (= cell_5_6 1)))
 (or $x2538 $x9334 $x5850 $x5968 $x4444 $x706 $x10196 $x1476 $x1046)))))))))))
(assert
 (let (($x1317 (= cell_6_6 9)))
 (let (($x5509 (= cell_6_6 8)))
 (let (($x4594 (= cell_6_6 7)))
 (let (($x9944 (= cell_6_6 6)))
 (let (($x4498 (= cell_6_6 5)))
 (let (($x7632 (= cell_6_6 4)))
 (let (($x2400 (= cell_6_6 3)))
 (let (($x7398 (= cell_6_6 2)))
 (let (($x10209 (= cell_6_6 1)))
 (or $x10209 $x7398 $x2400 $x7632 $x4498 $x9944 $x4594 $x5509 $x1317)))))))))))
(assert
 (let (($x5467 (= cell_7_6 9)))
 (let (($x7444 (= cell_7_6 8)))
 (let (($x5385 (= cell_7_6 7)))
 (let (($x8310 (= cell_7_6 6)))
 (let (($x6557 (= cell_7_6 5)))
 (let (($x6025 (= cell_7_6 4)))
 (let (($x4776 (= cell_7_6 3)))
 (let (($x8734 (= cell_7_6 2)))
 (let (($x2176 (= cell_7_6 1)))
 (or $x2176 $x8734 $x4776 $x6025 $x6557 $x8310 $x5385 $x7444 $x5467)))))))))))
(assert
 (let (($x4546 (= cell_8_6 9)))
 (let (($x9975 (= cell_8_6 8)))
 (let (($x4417 (= cell_8_6 7)))
 (let (($x3749 (= cell_8_6 6)))
 (let (($x5596 (= cell_8_6 5)))
 (let (($x2816 (= cell_8_6 4)))
 (let (($x8135 (= cell_8_6 3)))
 (let (($x8592 (= cell_8_6 2)))
 (let (($x5341 (= cell_8_6 1)))
 (or $x5341 $x8592 $x8135 $x2816 $x5596 $x3749 $x4417 $x9975 $x4546)))))))))))
(assert
 (let (($x4624 (= cell_9_6 9)))
 (let (($x1777 (= cell_9_6 8)))
 (let (($x8599 (= cell_9_6 7)))
 (let (($x3471 (= cell_9_6 6)))
 (let (($x7850 (= cell_9_6 5)))
 (let (($x5984 (= cell_9_6 4)))
 (let (($x5575 (= cell_9_6 3)))
 (let (($x7964 (= cell_9_6 2)))
 (let (($x3953 (= cell_9_6 1)))
 (or $x3953 $x7964 $x5575 $x5984 $x7850 $x3471 $x8599 $x1777 $x4624)))))))))))
(assert
 (let (($x7863 (= cell_1_7 9)))
 (let (($x1504 (= cell_1_7 8)))
 (let (($x7821 (= cell_1_7 7)))
 (let (($x6266 (= cell_1_7 6)))
 (let (($x644 (= cell_1_7 5)))
 (let (($x4657 (= cell_1_7 4)))
 (let (($x8672 (= cell_1_7 3)))
 (let (($x9882 (= cell_1_7 2)))
 (let (($x2684 (= cell_1_7 1)))
 (or $x2684 $x9882 $x8672 $x4657 $x644 $x6266 $x7821 $x1504 $x7863)))))))))))
(assert
 (let (($x5198 (= cell_2_7 9)))
 (let (($x7124 (= cell_2_7 8)))
 (let (($x4536 (= cell_2_7 7)))
 (let (($x9771 (= cell_2_7 6)))
 (let (($x4868 (= cell_2_7 5)))
 (let (($x205 (= cell_2_7 4)))
 (let (($x1967 (= cell_2_7 3)))
 (let (($x8384 (= cell_2_7 2)))
 (let (($x917 (= cell_2_7 1)))
 (or $x917 $x8384 $x1967 $x205 $x4868 $x9771 $x4536 $x7124 $x5198)))))))))))
(assert
 (let (($x6072 (= cell_3_7 9)))
 (let (($x4324 (= cell_3_7 8)))
 (let (($x1118 (= cell_3_7 7)))
 (let (($x3287 (= cell_3_7 6)))
 (let (($x8575 (= cell_3_7 5)))
 (let (($x4307 (= cell_3_7 4)))
 (let (($x547 (= cell_3_7 3)))
 (let (($x6655 (= cell_3_7 2)))
 (let (($x1334 (= cell_3_7 1)))
 (or $x1334 $x6655 $x547 $x4307 $x8575 $x3287 $x1118 $x4324 $x6072)))))))))))
(assert
 (let (($x6862 (= cell_4_7 9)))
 (let (($x2593 (= cell_4_7 8)))
 (let (($x6723 (= cell_4_7 7)))
 (let (($x6917 (= cell_4_7 6)))
 (let (($x3326 (= cell_4_7 5)))
 (let (($x9073 (= cell_4_7 4)))
 (let (($x4961 (= cell_4_7 3)))
 (let (($x9836 (= cell_4_7 2)))
 (let (($x8796 (= cell_4_7 1)))
 (or $x8796 $x9836 $x4961 $x9073 $x3326 $x6917 $x6723 $x2593 $x6862)))))))))))
(assert
 (let (($x3164 (= cell_5_7 9)))
 (let (($x5094 (= cell_5_7 8)))
 (let (($x3401 (= cell_5_7 7)))
 (let (($x8389 (= cell_5_7 6)))
 (let (($x9938 (= cell_5_7 5)))
 (let (($x1524 (= cell_5_7 4)))
 (let (($x9353 (= cell_5_7 3)))
 (let (($x117 (= cell_5_7 2)))
 (let (($x6245 (= cell_5_7 1)))
 (or $x6245 $x117 $x9353 $x1524 $x9938 $x8389 $x3401 $x5094 $x3164)))))))))))
(assert
 (let (($x6711 (= cell_6_7 9)))
 (let (($x2713 (= cell_6_7 8)))
 (let (($x6504 (= cell_6_7 7)))
 (let (($x2877 (= cell_6_7 6)))
 (let (($x9405 (= cell_6_7 5)))
 (let (($x5832 (= cell_6_7 4)))
 (let (($x7354 (= cell_6_7 3)))
 (let (($x3856 (= cell_6_7 2)))
 (let (($x3647 (= cell_6_7 1)))
 (or $x3647 $x3856 $x7354 $x5832 $x9405 $x2877 $x6504 $x2713 $x6711)))))))))))
(assert
 (let (($x1660 (= cell_7_7 9)))
 (let (($x7391 (= cell_7_7 8)))
 (let (($x2084 (= cell_7_7 7)))
 (let (($x4163 (= cell_7_7 6)))
 (let (($x2533 (= cell_7_7 5)))
 (let (($x6729 (= cell_7_7 4)))
 (let (($x1821 (= cell_7_7 3)))
 (let (($x6019 (= cell_7_7 2)))
 (let (($x8948 (= cell_7_7 1)))
 (or $x8948 $x6019 $x1821 $x6729 $x2533 $x4163 $x2084 $x7391 $x1660)))))))))))
(assert
 (let (($x4188 (= cell_8_7 9)))
 (let (($x9132 (= cell_8_7 8)))
 (let (($x9376 (= cell_8_7 7)))
 (let (($x8494 (= cell_8_7 6)))
 (let (($x9640 (= cell_8_7 5)))
 (let (($x2565 (= cell_8_7 4)))
 (let (($x6648 (= cell_8_7 3)))
 (let (($x4261 (= cell_8_7 2)))
 (let (($x3880 (= cell_8_7 1)))
 (or $x3880 $x4261 $x6648 $x2565 $x9640 $x8494 $x9376 $x9132 $x4188)))))))))))
(assert
 (let (($x4988 (= cell_9_7 9)))
 (let (($x6487 (= cell_9_7 8)))
 (let (($x5925 (= cell_9_7 7)))
 (let (($x1989 (= cell_9_7 6)))
 (let (($x137 (= cell_9_7 5)))
 (let (($x6195 (= cell_9_7 4)))
 (let (($x7188 (= cell_9_7 3)))
 (let (($x7339 (= cell_9_7 2)))
 (let (($x7443 (= cell_9_7 1)))
 (or $x7443 $x7339 $x7188 $x6195 $x137 $x1989 $x5925 $x6487 $x4988)))))))))))
(assert
 (let (($x8961 (= cell_1_8 9)))
 (let (($x1750 (= cell_1_8 8)))
 (let (($x5668 (= cell_1_8 7)))
 (let (($x7820 (= cell_1_8 6)))
 (let (($x5064 (= cell_1_8 5)))
 (let (($x6978 (= cell_1_8 4)))
 (let (($x4365 (= cell_1_8 3)))
 (let (($x9333 (= cell_1_8 2)))
 (let (($x4048 (= cell_1_8 1)))
 (or $x4048 $x9333 $x4365 $x6978 $x5064 $x7820 $x5668 $x1750 $x8961)))))))))))
(assert
 (let (($x7787 (= cell_2_8 9)))
 (let (($x4069 (= cell_2_8 8)))
 (let (($x4779 (= cell_2_8 7)))
 (let (($x3773 (= cell_2_8 6)))
 (let (($x7156 (= cell_2_8 5)))
 (let (($x9250 (= cell_2_8 4)))
 (let (($x240 (= cell_2_8 3)))
 (let (($x939 (= cell_2_8 2)))
 (let (($x7471 (= cell_2_8 1)))
 (or $x7471 $x939 $x240 $x9250 $x7156 $x3773 $x4779 $x4069 $x7787)))))))))))
(assert
 (let (($x4716 (= cell_3_8 9)))
 (let (($x9138 (= cell_3_8 8)))
 (let (($x4121 (= cell_3_8 7)))
 (let (($x5192 (= cell_3_8 6)))
 (let (($x8165 (= cell_3_8 5)))
 (let (($x5432 (= cell_3_8 4)))
 (let (($x10130 (= cell_3_8 3)))
 (let (($x4673 (= cell_3_8 2)))
 (let (($x7372 (= cell_3_8 1)))
 (or $x7372 $x4673 $x10130 $x5432 $x8165 $x5192 $x4121 $x9138 $x4716)))))))))))
(assert
 (let (($x380 (= cell_4_8 9)))
 (let (($x602 (= cell_4_8 8)))
 (let (($x5929 (= cell_4_8 7)))
 (let (($x6162 (= cell_4_8 6)))
 (let (($x2549 (= cell_4_8 5)))
 (let (($x908 (= cell_4_8 4)))
 (let (($x2190 (= cell_4_8 3)))
 (let (($x2522 (= cell_4_8 2)))
 (let (($x6967 (= cell_4_8 1)))
 (or $x6967 $x2522 $x2190 $x908 $x2549 $x6162 $x5929 $x602 $x380)))))))))))
(assert
 (let (($x7175 (= cell_5_8 9)))
 (let (($x6819 (= cell_5_8 8)))
 (let (($x7470 (= cell_5_8 7)))
 (let (($x5197 (= cell_5_8 6)))
 (let (($x1907 (= cell_5_8 5)))
 (let (($x9571 (= cell_5_8 4)))
 (let (($x111 (= cell_5_8 3)))
 (let (($x7245 (= cell_5_8 2)))
 (let (($x8008 (= cell_5_8 1)))
 (or $x8008 $x7245 $x111 $x9571 $x1907 $x5197 $x7470 $x6819 $x7175)))))))))))
(assert
 (let (($x4179 (= cell_6_8 9)))
 (let (($x1758 (= cell_6_8 8)))
 (let (($x3310 (= cell_6_8 7)))
 (let (($x9426 (= cell_6_8 6)))
 (let (($x4209 (= cell_6_8 5)))
 (let (($x1070 (= cell_6_8 4)))
 (let (($x7815 (= cell_6_8 3)))
 (let (($x9416 (= cell_6_8 2)))
 (let (($x7036 (= cell_6_8 1)))
 (or $x7036 $x9416 $x7815 $x1070 $x4209 $x9426 $x3310 $x1758 $x4179)))))))))))
(assert
 (let (($x6635 (= cell_7_8 9)))
 (let (($x4876 (= cell_7_8 8)))
 (let (($x9435 (= cell_7_8 7)))
 (let (($x10105 (= cell_7_8 6)))
 (let (($x2955 (= cell_7_8 5)))
 (let (($x5973 (= cell_7_8 4)))
 (let (($x1126 (= cell_7_8 3)))
 (let (($x7123 (= cell_7_8 2)))
 (let (($x4907 (= cell_7_8 1)))
 (or $x4907 $x7123 $x1126 $x5973 $x2955 $x10105 $x9435 $x4876 $x6635)))))))))))
(assert
 (let (($x7500 (= cell_8_8 9)))
 (let (($x9968 (= cell_8_8 8)))
 (let (($x837 (= cell_8_8 7)))
 (let (($x7948 (= cell_8_8 6)))
 (let (($x5033 (= cell_8_8 5)))
 (let (($x3819 (= cell_8_8 4)))
 (let (($x9820 (= cell_8_8 3)))
 (let (($x3156 (= cell_8_8 2)))
 (let (($x9565 (= cell_8_8 1)))
 (or $x9565 $x3156 $x9820 $x3819 $x5033 $x7948 $x837 $x9968 $x7500)))))))))))
(assert
 (let (($x4727 (= cell_9_8 9)))
 (let (($x2135 (= cell_9_8 8)))
 (let (($x7826 (= cell_9_8 7)))
 (let (($x264 (= cell_9_8 6)))
 (let (($x3140 (= cell_9_8 5)))
 (let (($x6317 (= cell_9_8 4)))
 (let (($x1609 (= cell_9_8 3)))
 (let (($x793 (= cell_9_8 2)))
 (let (($x1518 (= cell_9_8 1)))
 (or $x1518 $x793 $x1609 $x6317 $x3140 $x264 $x7826 $x2135 $x4727)))))))))))
(assert
 (let (($x5370 (= cell_1_9 9)))
 (let (($x8837 (= cell_1_9 8)))
 (let (($x5320 (= cell_1_9 7)))
 (let (($x8004 (= cell_1_9 6)))
 (let (($x2810 (= cell_1_9 5)))
 (let (($x8241 (= cell_1_9 4)))
 (let (($x4631 (= cell_1_9 3)))
 (let (($x8420 (= cell_1_9 2)))
 (let (($x2128 (= cell_1_9 1)))
 (or $x2128 $x8420 $x4631 $x8241 $x2810 $x8004 $x5320 $x8837 $x5370)))))))))))
(assert
 (let (($x1175 (= cell_2_9 9)))
 (let (($x6990 (= cell_2_9 8)))
 (let (($x2173 (= cell_2_9 7)))
 (let (($x1224 (= cell_2_9 6)))
 (let (($x3882 (= cell_2_9 5)))
 (let (($x5462 (= cell_2_9 4)))
 (let (($x5068 (= cell_2_9 3)))
 (let (($x3103 (= cell_2_9 2)))
 (let (($x9364 (= cell_2_9 1)))
 (or $x9364 $x3103 $x5068 $x5462 $x3882 $x1224 $x2173 $x6990 $x1175)))))))))))
(assert
 (let (($x1642 (= cell_3_9 9)))
 (let (($x5112 (= cell_3_9 8)))
 (let (($x6260 (= cell_3_9 7)))
 (let (($x1605 (= cell_3_9 6)))
 (let (($x5069 (= cell_3_9 5)))
 (let (($x1013 (= cell_3_9 4)))
 (let (($x7390 (= cell_3_9 3)))
 (let (($x1864 (= cell_3_9 2)))
 (let (($x5006 (= cell_3_9 1)))
 (or $x5006 $x1864 $x7390 $x1013 $x5069 $x1605 $x6260 $x5112 $x1642)))))))))))
(assert
 (let (($x7464 (= cell_4_9 9)))
 (let (($x1103 (= cell_4_9 8)))
 (let (($x5752 (= cell_4_9 7)))
 (let (($x7713 (= cell_4_9 6)))
 (let (($x6596 (= cell_4_9 5)))
 (let (($x6992 (= cell_4_9 4)))
 (let (($x4436 (= cell_4_9 3)))
 (let (($x8258 (= cell_4_9 2)))
 (let (($x6745 (= cell_4_9 1)))
 (or $x6745 $x8258 $x4436 $x6992 $x6596 $x7713 $x5752 $x1103 $x7464)))))))))))
(assert
 (let (($x9697 (= cell_5_9 9)))
 (let (($x3524 (= cell_5_9 8)))
 (let (($x5992 (= cell_5_9 7)))
 (let (($x6675 (= cell_5_9 6)))
 (let (($x4351 (= cell_5_9 5)))
 (let (($x2594 (= cell_5_9 4)))
 (let (($x1379 (= cell_5_9 3)))
 (let (($x7719 (= cell_5_9 2)))
 (let (($x6796 (= cell_5_9 1)))
 (or $x6796 $x7719 $x1379 $x2594 $x4351 $x6675 $x5992 $x3524 $x9697)))))))))))
(assert
 (let (($x5366 (= cell_6_9 9)))
 (let (($x7749 (= cell_6_9 8)))
 (let (($x667 (= cell_6_9 7)))
 (let (($x1678 (= cell_6_9 6)))
 (let (($x1730 (= cell_6_9 5)))
 (let (($x2771 (= cell_6_9 4)))
 (let (($x8443 (= cell_6_9 3)))
 (let (($x4899 (= cell_6_9 2)))
 (let (($x5389 (= cell_6_9 1)))
 (or $x5389 $x4899 $x8443 $x2771 $x1730 $x1678 $x667 $x7749 $x5366)))))))))))
(assert
 (let (($x4505 (= cell_7_9 9)))
 (let (($x4375 (= cell_7_9 8)))
 (let (($x7003 (= cell_7_9 7)))
 (let (($x1818 (= cell_7_9 6)))
 (let (($x6331 (= cell_7_9 5)))
 (let (($x3990 (= cell_7_9 4)))
 (let (($x1026 (= cell_7_9 3)))
 (let (($x4957 (= cell_7_9 2)))
 (let (($x8025 (= cell_7_9 1)))
 (or $x8025 $x4957 $x1026 $x3990 $x6331 $x1818 $x7003 $x4375 $x4505)))))))))))
(assert
 (let (($x6400 (= cell_8_9 9)))
 (let (($x1422 (= cell_8_9 8)))
 (let (($x489 (= cell_8_9 7)))
 (let (($x7077 (= cell_8_9 6)))
 (let (($x2002 (= cell_8_9 5)))
 (let (($x791 (= cell_8_9 4)))
 (let (($x6252 (= cell_8_9 3)))
 (let (($x7679 (= cell_8_9 2)))
 (let (($x4047 (= cell_8_9 1)))
 (or $x4047 $x7679 $x6252 $x791 $x2002 $x7077 $x489 $x1422 $x6400)))))))))))
(assert
 (let (($x654 (= cell_9_9 9)))
 (let (($x152 (= cell_9_9 8)))
 (let (($x1049 (= cell_9_9 7)))
 (let (($x7266 (= cell_9_9 6)))
 (let (($x5390 (= cell_9_9 5)))
 (let (($x9855 (= cell_9_9 4)))
 (let (($x4685 (= cell_9_9 3)))
 (let (($x5755 (= cell_9_9 2)))
 (let (($x4889 (= cell_9_9 1)))
 (or $x4889 $x5755 $x4685 $x9855 $x5390 $x7266 $x1049 $x152 $x654)))))))))))
(assert
 (and (distinct cell_1_1 cell_1_2 cell_1_3 cell_1_4 cell_1_5 cell_1_6 cell_1_7 cell_1_8 cell_1_9) true))
(assert
 (and (distinct cell_2_1 cell_2_2 cell_2_3 cell_2_4 cell_2_5 cell_2_6 cell_2_7 cell_2_8 cell_2_9) true))
(assert
 (and (distinct cell_3_1 cell_3_2 cell_3_3 cell_3_4 cell_3_5 cell_3_6 cell_3_7 cell_3_8 cell_3_9) true))
(assert
 (and (distinct cell_4_1 cell_4_2 cell_4_3 cell_4_4 cell_4_5 cell_4_6 cell_4_7 cell_4_8 cell_4_9) true))
(assert
 (and (distinct cell_5_1 cell_5_2 cell_5_3 cell_5_4 cell_5_5 cell_5_6 cell_5_7 cell_5_8 cell_5_9) true))
(assert
 (and (distinct cell_6_1 cell_6_2 cell_6_3 cell_6_4 cell_6_5 cell_6_6 cell_6_7 cell_6_8 cell_6_9) true))
(assert
 (and (distinct cell_7_1 cell_7_2 cell_7_3 cell_7_4 cell_7_5 cell_7_6 cell_7_7 cell_7_8 cell_7_9) true))
(assert
 (and (distinct cell_8_1 cell_8_2 cell_8_3 cell_8_4 cell_8_5 cell_8_6 cell_8_7 cell_8_8 cell_8_9) true))
(assert
 (and (distinct cell_9_1 cell_9_2 cell_9_3 cell_9_4 cell_9_5 cell_9_6 cell_9_7 cell_9_8 cell_9_9) true))
(assert
 (and (distinct cell_1_1 cell_2_1 cell_3_1 cell_4_1 cell_5_1 cell_6_1 cell_7_1 cell_8_1 cell_9_1) true))
(assert
 (and (distinct cell_1_2 cell_2_2 cell_3_2 cell_4_2 cell_5_2 cell_6_2 cell_7_2 cell_8_2 cell_9_2) true))
(assert
 (and (distinct cell_1_3 cell_2_3 cell_3_3 cell_4_3 cell_5_3 cell_6_3 cell_7_3 cell_8_3 cell_9_3) true))
(assert
 (and (distinct cell_1_4 cell_2_4 cell_3_4 cell_4_4 cell_5_4 cell_6_4 cell_7_4 cell_8_4 cell_9_4) true))
(assert
 (and (distinct cell_1_5 cell_2_5 cell_3_5 cell_4_5 cell_5_5 cell_6_5 cell_7_5 cell_8_5 cell_9_5) true))
(assert
 (and (distinct cell_1_6 cell_2_6 cell_3_6 cell_4_6 cell_5_6 cell_6_6 cell_7_6 cell_8_6 cell_9_6) true))
(assert
 (and (distinct cell_1_7 cell_2_7 cell_3_7 cell_4_7 cell_5_7 cell_6_7 cell_7_7 cell_8_7 cell_9_7) true))
(assert
 (and (distinct cell_1_8 cell_2_8 cell_3_8 cell_4_8 cell_5_8 cell_6_8 cell_7_8 cell_8_8 cell_9_8) true))
(assert
 (and (distinct cell_1_9 cell_2_9 cell_3_9 cell_4_9 cell_5_9 cell_6_9 cell_7_9 cell_8_9 cell_9_9) true))
(assert
 (and (distinct cell_1_1 cell_1_2 cell_1_3 cell_2_1 cell_2_2 cell_2_3 cell_3_1 cell_3_2 cell_3_3) true))
(assert
 (and (distinct cell_1_4 cell_1_5 cell_1_6 cell_2_4 cell_2_5 cell_2_6 cell_3_4 cell_3_5 cell_3_6) true))
(assert
 (and (distinct cell_1_7 cell_1_8 cell_1_9 cell_2_7 cell_2_8 cell_2_9 cell_3_7 cell_3_8 cell_3_9) true))
(assert
 (and (distinct cell_4_1 cell_4_2 cell_4_3 cell_5_1 cell_5_2 cell_5_3 cell_6_1 cell_6_2 cell_6_3) true))
(assert
 (and (distinct cell_4_4 cell_4_5 cell_4_6 cell_5_4 cell_5_5 cell_5_6 cell_6_4 cell_6_5 cell_6_6) true))
(assert
 (and (distinct cell_4_7 cell_4_8 cell_4_9 cell_5_7 cell_5_8 cell_5_9 cell_6_7 cell_6_8 cell_6_9) true))
(assert
 (and (distinct cell_7_1 cell_7_2 cell_7_3 cell_8_1 cell_8_2 cell_8_3 cell_9_1 cell_9_2 cell_9_3) true))
(assert
 (and (distinct cell_7_4 cell_7_5 cell_7_6 cell_8_4 cell_8_5 cell_8_6 cell_9_4 cell_9_5 cell_9_6) true))
(assert
 (and (distinct cell_7_7 cell_7_8 cell_7_9 cell_8_7 cell_8_8 cell_8_9 cell_9_7 cell_9_8 cell_9_9) true))
(assert
 (let (($x1359 (and (distinct cell_5_9 cell_6_8 cell_7_7 cell_8_6) true)))
 (let (($x8453 (and (distinct cell_2_9 cell_3_8 cell_4_7 cell_5_6 cell_6_5 cell_7_4 cell_8_3 cell_9_2) true)))
 (let (($x8583 (and (distinct cell_1_8 cell_2_7 cell_3_6 cell_4_5 cell_5_4 cell_6_3 cell_7_2 cell_8_1) true)))
 (let (($x1378 (and (distinct cell_1_5 cell_2_4 cell_3_3 cell_4_2) true)))
 (let (($x8032 (and (distinct cell_5_1 cell_6_2 cell_7_3 cell_8_4) true)))
 (let (($x5510 (and (distinct cell_2_1 cell_3_2 cell_4_3 cell_5_4 cell_6_5 cell_7_6 cell_8_7 cell_9_8) true)))
 (let (($x4979 (and (distinct cell_1_2 cell_2_3 cell_3_4 cell_4_5 cell_5_6 cell_6_7 cell_7_8 cell_8_9) true)))
 (let (($x2908 (and (distinct cell_1_5 cell_2_6 cell_3_7 cell_4_8) true)))
 (and $x2908 $x4979 $x5510 $x8032 $x1378 $x8583 $x8453 $x1359))))))))))
(assert
 (= cell_1_8 1))
(assert
 (= cell_2_5 1))
(assert
 (= cell_3_2 1))
(assert
 (= cell_4_1 1))
(assert
 (= cell_5_6 1))
(assert
 (= cell_6_9 1))
(assert
 (= cell_7_7 1))
(assert
 (= cell_8_4 1))
(assert
 (= cell_9_3 1))
(assert
 (= cell_1_4 2))
(assert
 (= cell_2_7 2))
(assert
 (= cell_3_3 2))
(assert
 (= cell_4_9 2))
(assert
 (= cell_5_5 2))
(assert
 (= cell_6_2 2))
(assert
 (= cell_7_1 2))
(assert
 (= cell_8_8 2))
(assert
 (= cell_9_6 2))
(assert
 (= cell_1_1 3))
(check-sat)

